100
128
17
11
48
34
1
29
32
35
38
38
10
37
42
30
21
19
22
59
17
53
15
60
9
25
59
50
50
39
28
59
20
12
22
19
63
24
26
39
17
22
22
12
60
32
13
1
59
48
21
64
32
57
51
61
30
34
34
50
33
26
38
17
38
18
20
31
17
27
28
39
35
27
22
22
15
38
20
1
26
33
32
64
3
52
44
32
44
52
31
48
29
28
53
27
52
34
42
37
61
29